100
1000
297
296
293
292
290
290
286
281
279
278
276
274
273
271
267
265
261
260
260
259
259
259
258
255
246
245
243
242
242
239
236
236
234
234
226
224
221
221
219
219
219
211
210
209
208
208
204
203
203
202
202
202
201
200
199
198
196
191
188
188
177
176
173
172
172
172
171
171
162
162
160
157
153
150
148
148
145
141
139
137
137
134
134
132
130
128
126
125
119
117
116
115
114
114
109
108
106
105
104
102
